; benchmark generated from python API
(set-info :status unknown)
(declare-datatypes ((RealState 0)) (((RMk1 (rval1 Real)) (RMk2 (rval2 Real)))))
 (assert
 (exists ((|v11:0_st| RealState) (val!6060 Real) )(exists ((|v10:1_st| RealState) (val!6061 Real) )(exists ((|v9:2_st| RealState) (val!6062 Real) )(exists ((|v8:3_st| RealState) (val!6063 Real) )(forall ((|v7:4| Real) )(forall ((|v6:5| Real) )(forall ((|v5:6| Real) )(forall ((|v4:7| Real) )(exists ((|v3:8_st| RealState) (val!6064 Real) )(exists ((|v2:9_st| RealState) (val!6065 Real) )(exists ((|v1:10_st| RealState) (val!6066 Real) )(exists ((|v0:11_st| RealState) (val!6067 Real) )(let ((?x3147 (rval2 |v9:2_st|)))
 (let ((?x427 (* 18.0 ?x3147)))
 (let ((?x273 (rval2 |v2:9_st|)))
 (let ((?x1271 (* 18.0 ?x273)))
 (let (($x3443 (<= (+ (+ (+ (* 9.0 |v7:4|) (* (- 7.0) (rval2 |v1:10_st|))) ?x1271) ?x427) 19.0)))
 (let ((?x2096 (- 10.0)))
 (let ((?x199 (+ (+ (* ?x2096 |v7:4|) (* (- 16.0) (rval2 |v0:11_st|))) (* (- 9.0) (rval2 |v3:8_st|)))))
 (let ((?x2072 (- 14.0)))
 (let ((?x3138 (rval2 |v1:10_st|)))
 (let ((?x2810 (* 3.0 ?x3138)))
 (let ((?x2716 (+ (+ (+ (* 10.0 |v4:7|) (* (- 8.0) (rval2 |v0:11_st|))) (* 16.0 ?x273)) ?x2810)))
 (let ((?x2749 (- 17.0)))
 (let ((?x1492 (+ (+ (+ (* 11.0 |v7:4|) (* 15.0 |v7:4|)) (* (- 15.0) (rval2 |v10:1_st|))) (* (- 2.0) |v6:5|))))
 (let (($x1438 (and (and (<= ?x1492 ?x2749) (<= ?x2716 ?x2072)) (and (<= (+ ?x199 (* 9.0 |v5:6|)) ?x2096) $x3443))))
 (let ((?x2397 (rval2 |v3:8_st|)))
 (let ((?x2047 (* 8.0 ?x2397)))
 (let ((?x2561 (+ (+ (* 15.0 (rval2 |v10:1_st|)) (* (- 18.0) (rval2 |v8:3_st|))) (* (- 4.0) (rval2 |v0:11_st|)))))
 (let ((?x961 (- 2.0)))
 (let ((?x2797 (+ (+ (+ (* ?x2749 (rval2 |v11:0_st|)) (* (- 11.0) ?x3147)) (* 20.0 ?x3147)) (* (- 3.0) |v5:6|))))
 (let ((?x2946 (- 12.0)))
 (let ((?x2970 (* ?x2946 |v4:7|)))
 (let ((?x3169 (+ (+ (+ (* 19.0 (rval2 |v11:0_st|)) (* 13.0 |v7:4|)) (* 9.0 ?x3138)) ?x2970)))
 (let ((?x2503 (- 3.0)))
 (let ((?x2250 (rval2 |v10:1_st|)))
 (let ((?x666 (* 15.0 ?x2250)))
 (let (($x2910 (<= (+ (+ (+ (* ?x2503 |v7:4|) (* ?x2096 ?x3147)) (* 13.0 ?x3147)) ?x666) ?x2503)))
 (let (($x621 (and (and $x2910 (<= ?x3169 ?x2946)) (and (<= ?x2797 ?x961) (<= (+ ?x2561 ?x2047) 12.0)))))
 (let ((?x694 (* 9.0 ?x2397)))
 (let (($x3394 (<= (+ (+ (+ (* 12.0 ?x273) (* (- 8.0) (rval2 |v11:0_st|))) ?x666) ?x694) 2.0)))
 (let ((?x71 (- 9.0)))
 (let ((?x2269 (* ?x71 ?x3138)))
 (let ((?x3234 (+ (+ (+ (* (- 13.0) ?x3147) (* (- 20.0) ?x3138)) (* ?x2946 ?x2250)) ?x2269)))
 (let ((?x3044 (- 20.0)))
 (let ((?x700 (+ (+ (+ (* 8.0 |v4:7|) (* 20.0 |v7:4|)) (* (- 7.0) |v6:5|)) (* (- 16.0) (rval2 |v8:3_st|)))))
 (let ((?x3071 (rval2 |v8:3_st|)))
 (let ((?x1319 (- 13.0)))
 (let ((?x492 (* ?x1319 ?x3071)))
 (let (($x2804 (<= (+ (+ (+ (* ?x2096 (rval2 |v11:0_st|)) (* (- 16.0) ?x3138)) |v7:4|) ?x492) 0.0)))
 (let ((?x2648 (- 8.0)))
 (let ((?x864 (* 8.0 ?x273)))
 (let (($x1396 (<= (+ (+ (+ (* ?x2648 |v5:6|) (* ?x2946 |v5:6|)) (* 3.0 ?x273)) ?x864) ?x2648)))
 (let ((?x2387 (- 1.0)))
 (let (($x1025 (<= (+ (+ (+ ?x694 (* 11.0 |v6:5|)) (* 16.0 ?x2250)) (* 3.0 |v4:7|)) ?x2387)))
 (let ((?x3057 (+ (+ (+ (* (- 4.0) ?x3071) (* ?x2946 ?x3138)) (* 11.0 ?x2250)) (* ?x961 |v4:7|))))
 (let ((?x1477 (- 5.0)))
 (let ((?x721 (rval2 |v0:11_st|)))
 (let ((?x1224 (* 6.0 ?x721)))
 (let (($x3059 (and (<= (+ (+ (+ (* 19.0 |v4:7|) (* 13.0 ?x2397)) ?x2810) ?x1224) ?x1477) (<= ?x3057 ?x2072))))
 (let (($x2160 (and (and $x3059 (and $x1025 $x1396)) (and (and $x2804 (<= ?x700 ?x3044)) (and (<= ?x3234 ?x2946) $x3394)))))
 (let ((?x1774 (- 11.0)))
 (let ((?x1586 (* ?x961 |v7:4|)))
 (let (($x405 (<= (+ (+ (+ (* 19.0 ?x3071) (* 8.0 |v7:4|)) (* 3.0 ?x3147)) ?x1586) ?x1774)))
 (let ((?x3221 (* 20.0 |v5:6|)))
 (let (($x1182 (<= (+ (+ (+ (* 10.0 ?x2397) (* ?x2946 ?x3138)) (* 14.0 |v7:4|)) ?x3221) 14.0)))
 (let ((?x1357 (* 19.0 ?x2397)))
 (let (($x506 (<= (+ (+ (+ (* 9.0 ?x3138) (* ?x3044 (rval2 |v11:0_st|))) ?x721) ?x1357) 19.0)))
 (let (($x1615 (<= (+ (+ (+ ?x1586 (* 9.0 ?x3138)) (* ?x1477 |v6:5|)) (* 11.0 ?x721)) ?x2503)))
 (let (($x1734 (<= (+ (+ (+ (* ?x2648 ?x2250) ?x492) (* 18.0 |v5:6|)) (* (- 19.0) |v7:4|)) ?x2072)))
 (let ((?x1076 (+ (+ (+ (* ?x2072 ?x721) (* ?x2503 |v4:7|)) (* (- 19.0) |v6:5|)) (* 0.0 ?x273))))
 (let ((?x1003 (* 6.0 ?x3071)))
 (let (($x1345 (<= (+ (+ (+ (* ?x2096 ?x2397) (* 14.0 ?x2397)) (* 9.0 ?x2250)) ?x1003) 1.0)))
 (let ((?x1885 (+ (+ (+ (* 13.0 ?x2397) (* ?x2503 ?x2250)) (* ?x71 (rval2 |v11:0_st|))) (* 19.0 ?x3138))))
 (let (($x1036 (and (and (and (<= ?x1885 10.0) $x1345) (and (<= ?x1076 7.0) $x1734)) (and (and $x1615 $x506) (or $x1182 $x405)))))
 (let ((?x2913 (* 15.0 ?x273)))
 (let ((?x3258 (+ (+ (+ (* (- 7.0) |v5:6|) (* ?x2387 ?x2397)) (* (- 4.0) ?x3147)) ?x2913)))
 (let ((?x1460 (+ (+ (+ (* ?x2387 ?x3147) (* 11.0 (rval2 |v11:0_st|))) (* (- 15.0) |v7:4|)) (* ?x2648 ?x3071))))
 (let ((?x3351 (* 14.0 ?x2250)))
 (let (($x2437 (<= (+ (+ (+ (* ?x71 |v6:5|) (* 5.0 ?x721)) (* (- 4.0) ?x2397)) ?x3351) ?x2503)))
 (let ((?x636 (* 12.0 ?x2397)))
 (let (($x2519 (<= (+ (+ (+ (* 5.0 |v5:6|) (* 15.0 |v4:7|)) (* ?x2503 ?x721)) ?x636) 18.0)))
 (let ((?x800 (+ (+ (+ (* ?x1319 |v4:7|) (* 2.0 ?x3138)) (* (- 18.0) ?x2397)) (* ?x2749 ?x3138))))
 (let (($x2654 (<= (+ (+ (+ (* ?x2503 |v4:7|) ?x427) (* 17.0 ?x721)) (* 16.0 ?x3147)) 4.0)))
 (let ((?x1709 (- 16.0)))
 (let ((?x3478 (+ (+ (+ (* 7.0 ?x3147) (* ?x2503 ?x2250)) (* 20.0 ?x3138)) (* ?x2503 ?x3138))))
 (let ((?x599 (- 6.0)))
 (let ((?x947 (+ (+ (+ (* (- 18.0) ?x3147) (* 4.0 ?x2250)) (* ?x2387 ?x273)) (* (- 18.0) ?x2250))))
 (let (($x2583 (and (and (<= ?x947 ?x599) (<= ?x3478 ?x1709)) (or $x2654 (<= ?x800 11.0)))))
 (let (($x2783 (and $x2583 (and (and $x2519 $x2437) (and (<= ?x1460 ?x2648) (<= ?x3258 8.0))))))
 (let ((?x1633 (- 7.0)))
 (let ((?x348 (* ?x1633 ?x3138)))
 (let (($x3205 (<= (+ (+ (+ (* (- 18.0) ?x273) (* ?x2503 ?x3071)) (* 4.0 |v7:4|)) ?x348) 0.0)))
 (let ((?x370 (+ (+ (+ (* 16.0 |v6:5|) (* 0.0 |v5:6|)) (* ?x2749 ?x273)) (* (- 15.0) ?x721))))
 (let ((?x1184 (+ (+ (+ (* 19.0 ?x3147) (* 15.0 ?x3147)) (* (- 19.0) ?x3147)) (* ?x1477 ?x273))))
 (let (($x2768 (<= (+ (+ (+ (* ?x2946 ?x3071) ?x666) (* (- 18.0) ?x721)) (* 11.0 ?x2250)) ?x599)))
 (let ((?x1642 (- 18.0)))
 (let ((?x2580 (* ?x1642 |v5:6|)))
 (let (($x2890 (<= (+ (+ (+ (* ?x2387 ?x3138) (* ?x1319 ?x2250)) (* 17.0 ?x3071)) ?x2580) 1.0)))
 (let ((?x2706 (+ (+ (+ (* 13.0 ?x721) (* 7.0 ?x3147)) (* 14.0 (rval2 |v11:0_st|))) (* ?x1633 ?x3071))))
 (let (($x280 (<= (+ (+ (+ (* ?x1633 |v6:5|) (* ?x1709 ?x2250)) ?x2047) (* 0.0 ?x2250)) ?x2096)))
 (let ((?x496 (- 19.0)))
 (let ((?x3355 (+ (+ (+ (* 11.0 ?x3147) (* 16.0 |v4:7|)) (* ?x2946 ?x3147)) (* ?x1633 ?x721))))
 (let (($x1978 (and (and (or (<= ?x3355 ?x496) $x280) (and (<= ?x2706 ?x3044) $x2890)) (and (and $x2768 (<= ?x1184 17.0)) (and (<= ?x370 ?x961) $x3205)))))
 (let (($x2641 (<= (+ (+ (+ (* ?x496 |v4:7|) (* 7.0 |v4:7|)) ?x2580) (* 8.0 ?x3138)) 11.0)))
 (let ((?x1390 (* ?x2096 ?x3071)))
 (let ((?x2193 (+ (+ (+ (* ?x1709 |v4:7|) (* ?x2072 (rval2 |v11:0_st|))) (* 6.0 ?x273)) ?x1390)))
 (let ((?x2780 (+ (+ (+ (* 0.0 ?x3138) (* 18.0 ?x2397)) (* 3.0 ?x3147)) (* ?x1319 (rval2 |v11:0_st|)))))
 (let ((?x827 (* 18.0 ?x2250)))
 (let (($x954 (<= (+ (+ (+ (* 18.0 ?x721) (* ?x1477 ?x2250)) (* ?x2946 ?x3071)) ?x827) ?x1642)))
 (let ((?x3309 (+ (+ (+ (* 0.0 ?x3071) (* ?x496 ?x2397)) (* ?x2946 |v5:6|)) (* ?x2096 ?x3138))))
 (let (($x1413 (or (<= (+ (+ (+ ?x1586 (* 7.0 |v6:5|)) ?x1390) (* ?x1774 ?x721)) 2.0) (<= ?x3309 7.0))))
 (let ((?x1415 (- 15.0)))
 (let ((?x652 (* ?x71 |v6:5|)))
 (let (($x2987 (<= (+ (+ (+ (* 17.0 ?x2250) (* ?x961 ?x3138)) (* ?x3044 |v4:7|)) ?x652) ?x1415)))
 (let (($x1355 (<= (+ (+ (+ (* ?x2648 (rval2 |v11:0_st|)) ?x2913) ?x864) (* 15.0 ?x3071)) 11.0)))
 (let (($x632 (and (and (and $x1355 $x2987) $x1413) (and (or $x954 (<= ?x2780 18.0)) (and (<= ?x2193 1.0) $x2641)))))
 (let (($x3123 (<= (+ (+ (+ (* 6.0 |v6:5|) (* 11.0 |v6:5|)) (* 2.0 |v4:7|)) ?x827) ?x1709)))
 (let ((?x2041 (* 6.0 ?x3138)))
 (let (($x2909 (<= (+ (+ (+ (* 5.0 |v7:4|) (* ?x1415 ?x273)) (* 7.0 |v7:4|)) ?x2041) 7.0)))
 (let ((?x1019 (+ (+ (+ (* 16.0 ?x3138) (* 13.0 ?x273)) (* ?x71 ?x721)) (* ?x2072 ?x2250))))
 (let ((?x874 (+ (+ (+ ?x427 (* ?x2387 ?x2250)) (* ?x2648 (rval2 |v11:0_st|))) (* 13.0 ?x3138))))
 (let ((?x1281 (* ?x2648 |v4:7|)))
 (let (($x3118 (<= (+ (+ (+ (* ?x71 ?x273) (* ?x1415 |v6:5|)) (* 5.0 |v5:6|)) ?x1281) 1.0)))
 (let (($x830 (and $x3118 (<= (+ (+ (+ ?x721 (* 6.0 ?x2250)) ?x2041) (* 14.0 ?x3138)) ?x2072))))
 (let ((?x769 (+ (+ (+ (* ?x2387 ?x3138) (* 13.0 ?x2250)) (* 5.0 |v4:7|)) (* ?x2946 (rval2 |v11:0_st|)))))
 (let ((?x834 (+ (+ (+ (* 6.0 |v5:6|) (* 11.0 |v6:5|)) (* 3.0 ?x2397)) (* 5.0 ?x2397))))
 (let (($x538 (or (and (and (<= ?x834 10.0) (<= ?x769 ?x2072)) $x830) (and (and (<= ?x874 ?x2503) (<= ?x1019 ?x2749)) (and $x2909 $x3123)))))
 (let ((?x990 (+ (+ (+ (* 9.0 |v4:7|) (* 15.0 (rval2 |v11:0_st|))) (* 13.0 ?x3147)) (* 6.0 ?x3147))))
 (let (($x958 (and (<= ?x990 15.0) (<= (+ (+ (+ ?x2970 (* 17.0 |v7:4|)) ?x2269) (* 3.0 |v4:7|)) ?x1642))))
 (let ((?x1201 (* ?x1633 |v4:7|)))
 (let (($x3316 (<= (+ (+ (+ (* ?x496 |v7:4|) (* 15.0 ?x3071)) (* 13.0 |v6:5|)) ?x1201) ?x1774)))
 (let ((?x3055 (+ (+ (+ (* 3.0 ?x273) (* 20.0 ?x3071)) (* ?x1319 |v4:7|)) (* ?x2648 ?x273))))
 (let ((?x1962 (+ (+ (+ (* 12.0 |v4:7|) (* 13.0 (rval2 |v11:0_st|))) (* 2.0 ?x3071)) (* 14.0 |v4:7|))))
 (let ((?x220 (rval2 |v11:0_st|)))
 (let ((?x1050 (* 6.0 ?x220)))
 (let (($x1589 (<= (+ (+ (+ (* 4.0 |v4:7|) (* 3.0 |v7:4|)) (* ?x1319 ?x2397)) ?x1050) ?x2096)))
 (let ((?x3347 (* ?x2946 ?x3147)))
 (let (($x1464 (<= (+ (+ (+ (* 19.0 |v7:4|) (* 17.0 ?x220)) (* 20.0 |v6:5|)) ?x3347) 15.0)))
 (let ((?x1779 (* ?x2648 |v7:4|)))
 (let (($x3204 (<= (+ (+ (+ (* 5.0 ?x220) (* 8.0 |v6:5|)) (* ?x2749 |v7:4|)) ?x1779) 16.0)))
 (let (($x2538 (and (and (and $x3204 $x1464) (and $x1589 (<= ?x1962 ?x1633))) (and (and (<= ?x3055 ?x961) $x3316) $x958))))
 (let (($x3378 (and (and (and $x2538 $x538) (and $x632 $x1978)) (and (and $x2783 $x1036) (and $x2160 (and $x621 $x1438))))))
 (let (($x1161 (not (= |v0:11_st| (RMk1 val!6067)))))
 (let (($x1272 (not (= |v1:10_st| (RMk1 val!6066)))))
 (let (($x1346 (not (= |v2:9_st| (RMk1 val!6065)))))
 (let (($x2005 (not (= |v3:8_st| (RMk1 val!6064)))))
 (let (($x1367 (not (= |v8:3_st| (RMk1 val!6063)))))
 (let (($x3058 (not (= |v9:2_st| (RMk1 val!6062)))))
 (let (($x1294 (not (= |v10:1_st| (RMk1 val!6061)))))
 (let (($x2915 (not (= |v11:0_st| (RMk1 val!6060)))))
 (and $x2915 $x1294 $x3058 $x1367 $x2005 $x1346 $x1272 $x1161 $x3378)))))))))))))))))))))))))))))))))))))))))))))))))))))))))))))))))))))))))))))))))))))))))))))))))))))))))))))))))))))))))))))))))))))))))))))
 )
 )
 )
 )
 )
 )
 )
 )
 )
 )
 )
 )
(check-sat)
